%%%mzn-stat: initTime=0.00487553
%%%mzn-stat: objective=305
%%%mzn-stat: nodes=1922
%%%mzn-stat: restarts=0
%%%mzn-stat: peakDepth=163
%%%mzn-stat: solveTime=0.177754468
%%%mzn-stat: variables=466
%%%mzn-stat: propagators=1517
%%%mzn-stat: failures=1121
%%%mzn-stat: propagations=397252
%%%mzn-stat: nogoods=1121
%%%mzn-stat: AverageConflictSize=9.901873327386262
%%%mzn-stat: NumUnitNogoodsLearned=304
%%%mzn-stat: AverageLearnedNogoodLength=12.072256913470117
%%%mzn-stat: AverageBacktrackAmount=0
%%%mzn-stat: AverageLbd=5.090990187332738
%%%mzn-stat-end
maxleg = 305;
succ = array1d(1..50,[23, 31, 17, 32, 24, 38, 1, 21, 29, 42, 4, 2, 50, 28, 33, 14, 40, 13, 34, 43, 48, 25, 47, 49, 6, 44, 12, 11, 41, 22, 8, 45, 26, 10, 19, 27, 5, 20, 37, 35, 39, 36, 18, 9, 3, 15, 30, 7, 16, 46]);
% time elapsed: 1.56 s
----------
==========
% time elapsed: 1.56 s
%%%mzn-stat: initTime=0.00487553
%%%mzn-stat: objective=305
%%%mzn-stat: nodes=1922
%%%mzn-stat: restarts=0
%%%mzn-stat: peakDepth=163
%%%mzn-stat: solveTime=0.177757869
%%%mzn-stat: variables=466
%%%mzn-stat: propagators=1517
%%%mzn-stat: failures=1121
%%%mzn-stat: propagations=397252
%%%mzn-stat: nogoods=1121
%%%mzn-stat: AverageConflictSize=9.901873327386262
%%%mzn-stat: NumUnitNogoodsLearned=304
%%%mzn-stat: AverageLearnedNogoodLength=12.072256913470117
%%%mzn-stat: AverageBacktrackAmount=0
%%%mzn-stat: AverageLbd=5.090990187332738
%%%mzn-stat-end
